# 62276
param k := 6;
param n := 60;
param s := 1;
set E :=  (0,8) (0,36) (1,15) (2,34) (3,9) (4,40) (5,9) (5,46) (6,36) (6,51) (7,11) (8,40) (9,22) (9,32) (10,28) (10,33) (11,43) (11,46) (12,48) (13,18) (13,51) (14,18) (14,37) (14,43) (14,57) (15,17) (15,31) (16,42) (17,19) (17,22) (17,23) (18,24) (18,38) (19,25) (19,34) (19,59) (20,31) (21,35) (21,40) (21,47) (22,56) (23,44) (23,45) (24,42) (25,27) (25,50) (25,55) (26,43) (27,39) (28,52) (29,33) (30,37) (36,39) (37,50) (41,45) (43,49) (44,57) (45,48) (47,49) (52,55) (53,59) (54,58) (58,59);